NAME : kroA100-C-5-1-a__bsl__26964.tour
COMMENT : Length = 26964.000
COMMENT : Generated by compare_sota_instances.py for bsl
TYPE : TOUR
DIMENSION : 100
TOUR_SECTION
1
90
47
77
20
12
27
86
35
62
60
23
98
91
45
32
11
15
17
59
74
21
72
36
99
38
24
53
10
84
18
79
94
88
22
16
70
26
66
65
4
19
75
97
56
80
31
89
42
8
92
85
39
82
95
76
33
13
37
5
96
52
78
30
48
100
41
71
43
3
46
29
14
34
83
55
7
57
9
87
51
61
25
81
68
73
50
44
2
54
40
64
69
67
58
93
28
63
6
49
-1
EOF
